Minimize
 obj: + T_0 + T_1 + T_2 + T_3 
Subject To
 assign_0: + x_0_0 + x_1_0 = 1
 assign_1: + x_0_1 + x_1_1 = 1
 assign_2: + x_0_2 + x_1_2 = 1
 assign_3: + x_0_3 + x_1_3 = 1
 complete_0: C_0 - S_0 = 4
 complete_1: C_1 - S_1 = 3
 complete_2: C_2 - S_2 = 2
 complete_3: C_3 - S_3 = 5
 tardiness_0_1: T_0 - C_0 >= -10
 tardiness_0_2: T_0 >= 0
 tardiness_1_1: T_1 - C_1 >= -6
 tardiness_1_2: T_1 >= 0
 tardiness_2_1: T_2 - C_2 >= -8
 tardiness_2_2: T_2 >= 0
 tardiness_3_1: T_3 - C_3 >= -9
 tardiness_3_2: T_3 >= 0
precede_0_0_1_1: S_0 + 4 - S_1 <= 14 * (2 - x_0_0 - x_0_1 + z_0_1)
precede_0_0_1_2: S_1 + 3 - S_0 <= 14 * (2 - x_0_0 - x_0_1 + 1 - z_0_1)
precede_0_0_2_1: S_0 + 4 - S_2 <= 14 * (2 - x_0_0 - x_0_2 + z_0_2)
precede_0_0_2_2: S_2 + 2 - S_0 <= 14 * (2 - x_0_0 - x_0_2 + 1 - z_0_2)
precede_0_0_3_1: S_0 + 4 - S_3 <= 14 * (2 - x_0_0 - x_0_3 + z_0_3)
precede_0_0_3_2: S_3 + 5 - S_0 <= 14 * (2 - x_0_0 - x_0_3 + 1 - z_0_3)
precede_0_1_0_1: S_1 + 3 - S_0 <= 14 * (2 - x_0_1 - x_0_0 + z_1_0)
precede_0_1_0_2: S_0 + 4 - S_1 <= 14 * (2 - x_0_1 - x_0_0 + 1 - z_1_0)
precede_0_1_2_1: S_1 + 3 - S_2 <= 14 * (2 - x_0_1 - x_0_2 + z_1_2)
precede_0_1_2_2: S_2 + 2 - S_1 <= 14 * (2 - x_0_1 - x_0_2 + 1 - z_1_2)
precede_0_1_3_1: S_1 + 3 - S_3 <= 14 * (2 - x_0_1 - x_0_3 + z_1_3)
precede_0_1_3_2: S_3 + 5 - S_1 <= 14 * (2 - x_0_1 - x_0_3 + 1 - z_1_3)
precede_0_2_0_1: S_2 + 2 - S_0 <= 14 * (2 - x_0_2 - x_0_0 + z_2_0)
precede_0_2_0_2: S_0 + 4 - S_2 <= 14 * (2 - x_0_2 - x_0_0 + 1 - z_2_0)
precede_0_2_1_1: S_2 + 2 - S_1 <= 14 * (2 - x_0_2 - x_0_1 + z_2_1)
precede_0_2_1_2: S_1 + 3 - S_2 <= 14 * (2 - x_0_2 - x_0_1 + 1 - z_2_1)
precede_0_2_3_1: S_2 + 2 - S_3 <= 14 * (2 - x_0_2 - x_0_3 + z_2_3)
precede_0_2_3_2: S_3 + 5 - S_2 <= 14 * (2 - x_0_2 - x_0_3 + 1 - z_2_3)
precede_0_3_0_1: S_3 + 5 - S_0 <= 14 * (2 - x_0_3 - x_0_0 + z_3_0)
precede_0_3_0_2: S_0 + 4 - S_3 <= 14 * (2 - x_0_3 - x_0_0 + 1 - z_3_0)
precede_0_3_1_1: S_3 + 5 - S_1 <= 14 * (2 - x_0_3 - x_0_1 + z_3_1)
precede_0_3_1_2: S_1 + 3 - S_3 <= 14 * (2 - x_0_3 - x_0_1 + 1 - z_3_1)
precede_0_3_2_1: S_3 + 5 - S_2 <= 14 * (2 - x_0_3 - x_0_2 + z_3_2)
precede_0_3_2_2: S_2 + 2 - S_3 <= 14 * (2 - x_0_3 - x_0_2 + 1 - z_3_2)
precede_1_0_1_1: S_0 + 4 - S_1 <= 14 * (2 - x_1_0 - x_1_1 + z_0_1)
precede_1_0_1_2: S_1 + 3 - S_0 <= 14 * (2 - x_1_0 - x_1_1 + 1 - z_0_1)
precede_1_0_2_1: S_0 + 4 - S_2 <= 14 * (2 - x_1_0 - x_1_2 + z_0_2)
precede_1_0_2_2: S_2 + 2 - S_0 <= 14 * (2 - x_1_0 - x_1_2 + 1 - z_0_2)
precede_1_0_3_1: S_0 + 4 - S_3 <= 14 * (2 - x_1_0 - x_1_3 + z_0_3)
precede_1_0_3_2: S_3 + 5 - S_0 <= 14 * (2 - x_1_0 - x_1_3 + 1 - z_0_3)
precede_1_1_0_1: S_1 + 3 - S_0 <= 14 * (2 - x_1_1 - x_1_0 + z_1_0)
precede_1_1_0_2: S_0 + 4 - S_1 <= 14 * (2 - x_1_1 - x_1_0 + 1 - z_1_0)
precede_1_1_2_1: S_1 + 3 - S_2 <= 14 * (2 - x_1_1 - x_1_2 + z_1_2)
precede_1_1_2_2: S_2 + 2 - S_1 <= 14 * (2 - x_1_1 - x_1_2 + 1 - z_1_2)
precede_1_1_3_1: S_1 + 3 - S_3 <= 14 * (2 - x_1_1 - x_1_3 + z_1_3)
precede_1_1_3_2: S_3 + 5 - S_1 <= 14 * (2 - x_1_1 - x_1_3 + 1 - z_1_3)
precede_1_2_0_1: S_2 + 2 - S_0 <= 14 * (2 - x_1_2 - x_1_0 + z_2_0)
precede_1_2_0_2: S_0 + 4 - S_2 <= 14 * (2 - x_1_2 - x_1_0 + 1 - z_2_0)
precede_1_2_1_1: S_2 + 2 - S_1 <= 14 * (2 - x_1_2 - x_1_1 + z_2_1)
precede_1_2_1_2: S_1 + 3 - S_2 <= 14 * (2 - x_1_2 - x_1_1 + 1 - z_2_1)
precede_1_2_3_1: S_2 + 2 - S_3 <= 14 * (2 - x_1_2 - x_1_3 + z_2_3)
precede_1_2_3_2: S_3 + 5 - S_2 <= 14 * (2 - x_1_2 - x_1_3 + 1 - z_2_3)
precede_1_3_0_1: S_3 + 5 - S_0 <= 14 * (2 - x_1_3 - x_1_0 + z_3_0)
precede_1_3_0_2: S_0 + 4 - S_3 <= 14 * (2 - x_1_3 - x_1_0 + 1 - z_3_0)
precede_1_3_1_1: S_3 + 5 - S_1 <= 14 * (2 - x_1_3 - x_1_1 + z_3_1)
precede_1_3_1_2: S_1 + 3 - S_3 <= 14 * (2 - x_1_3 - x_1_1 + 1 - z_3_1)
precede_1_3_2_1: S_3 + 5 - S_2 <= 14 * (2 - x_1_3 - x_1_2 + z_3_2)
precede_1_3_2_2: S_2 + 2 - S_3 <= 14 * (2 - x_1_3 - x_1_2 + 1 - z_3_2)
Bounds
 S_0 >= 0
 C_0 >= 0
 T_0 >= 0
 S_1 >= 0
 C_1 >= 0
 T_1 >= 0
 S_2 >= 0
 C_2 >= 0
 T_2 >= 0
 S_3 >= 0
 C_3 >= 0
 T_3 >= 0
Binary
 x_0_0
 x_0_1
 x_0_2
 x_0_3
 x_1_0
 x_1_1
 x_1_2
 x_1_3
 z_0_1
 z_0_2
 z_0_3
 z_1_0
 z_1_2
 z_1_3
 z_2_0
 z_2_1
 z_2_3
 z_3_0
 z_3_1
 z_3_2
End
